(set-info :origin "driver benchmark extracted from Microsoft SDV")
(set-logic HORN)
(declare-fun Proc30 (Int Int Int Int Int Bool Int Int) Bool)
(declare-fun Proc32 (Int Int Int Int Int Bool) Bool)
(declare-fun Proc14 (Int Int Int Int Int Bool Int Int Int Int) Bool)
(declare-fun Proc45 (Int Int Int Int Int Bool Int) Bool)
(declare-fun Proc39 (Int Int Int Int Int Bool Int Int Int) Bool)
(declare-fun Proc26 (Int Int Int Int Int Bool Int Int Int) Bool)
(declare-fun Proc6 (Int Int Int Int Int Bool Int Int) Bool)
(declare-fun Proc21 (Int Int Int Int Int Bool Int Int) Bool)
(declare-fun Proc51 (Int Int Int Int Int Bool Int) Bool)
(declare-fun Proc15 (Int Int Int Int Int Bool Int Int) Bool)
(declare-fun Proc7 (Int Int Int Int Int Bool Int Int Int Int) Bool)
(declare-fun Proc38 (Int Int Int Int Int Bool Int Int) Bool)
(declare-fun Proc36 (Int Int Int Int Int Bool Int) Bool)
(declare-fun Proc9 (Int Int Int Int Int Bool Int Int) Bool)
(declare-fun Proc37 (Int Int Int Int Int Bool Int Int) Bool)
(declare-fun Proc13 (Int Int Int Int Int Bool Int) Bool)
(declare-fun Proc57 (Int Int Int Int Int Bool Int Int Int Int) Bool)
(declare-fun Proc34 (Int Int Int Int Int Bool) Bool)
(declare-fun Proc0 (Int Int Int Int Int Bool Int Int) Bool)
(declare-fun Proc10 (Int Int Int Int Int Bool Int Int Int) Bool)
(declare-fun Proc16 (Int Int Int Int Int Bool Int Int Int Int) Bool)
(declare-fun Proc50 (Int Int Int Int Int Bool Int) Bool)
(declare-fun Proc54 (Int Int Int Int Int Bool Int) Bool)
(declare-fun Proc31 (Int Int Int Int Int Bool Int Int Int Int) Bool)
(declare-fun Proc1 (Int Int Int Int Int Bool Int) Bool)
(declare-fun Proc28 (Int Int Int Int Int Bool Int Int Int Int) Bool)
(declare-fun Proc42 (Int Int Int Int Int Bool Int) Bool)
(declare-fun Proc56 (Int Int Int Int Int Bool Int Int) Bool)
(declare-fun Proc2 (Int Int Int Int Int Bool Int) Bool)
(declare-fun Proc8 (Int Int Int Int Int Bool Int Int) Bool)
(declare-fun Proc19 (Int Int Int Int Int Bool Int Int) Bool)
(declare-fun Proc27 (Int Int Int Int Int Bool Int Int) Bool)
(declare-fun Proc58 (Int Int Int Int Int Bool) Bool)
(declare-fun Proc35 (Int Int Int Int Int Bool) Bool)
(declare-fun Proc11 (Int Int Int Int Int Bool Int) Bool)
(declare-fun Proc40
             (Int Int Int Int Int Bool Int Int Int Int Bool Int Int)
             Bool)
(declare-fun Proc43 (Int Int Int Int Int Bool Int) Bool)
(declare-fun Proc48 (Int Int Int Int Int Bool Int) Bool)
(declare-fun Proc49 (Int Int Int Int Int Bool Int) Bool)
(declare-fun Proc24 (Int Int Int Int Int Bool Int) Bool)
(declare-fun Proc22 (Int Int Int Int Int Bool Int Int Int) Bool)
(declare-fun Proc46 (Int Int Int Int Int Bool Int) Bool)
(declare-fun Proc5 (Int Int Int Int Int Bool Int Int Int Int) Bool)
(declare-fun Proc4 (Int Int Int Int Int Bool Int) Bool)
(declare-fun Proc23 (Int Int Int Int Int Bool Int Int Int) Bool)
(declare-fun Proc59
             (Int Int Int Int Int Bool Int Bool Int Int Int Int Int)
             Bool)
(declare-fun Proc44 (Int Int Int Int Int Bool Int) Bool)
(declare-fun Proc3 (Int Int Int Int Int Bool Int Int Int Int) Bool)
(declare-fun Proc53 (Int Int Int Int Int Bool Int) Bool)
(declare-fun Proc47 (Int Int Int Int Int Bool Int) Bool)
(declare-fun Proc41 (Int Int Int Int Int Bool Int) Bool)
(declare-fun Proc55 (Int Int Int Int Int Bool) Bool)
(declare-fun Proc25 (Int Int Int Int Int Bool Int Int Int Int) Bool)
(declare-fun Proc17 (Int Int Int Int Int Bool Int Int Int Int Int) Bool)
(declare-fun Proc33 (Int Int Int Int Int Bool) Bool)
(declare-fun Proc29 (Int Int Int Int Int Bool Int) Bool)
(declare-fun Proc12 (Int Int Int Int Int Bool Int Int Int) Bool)
(declare-fun Proc20 (Int Int Int Int Int Bool Int Int Int) Bool)
(declare-fun Proc18 (Int Int Int Int Int Bool Int Int Int Int) Bool)
(declare-fun Proc52 (Int Int Int Int Int Bool Int) Bool)
(assert (forall ((A Int)
         (B Int)
         (C Int)
         (D Int)
         (E Int)
         (F Int)
         (G Int)
         (H Int)
         (I Int)
         (J Int)
         (K Int)
         (L Int)
         (M Int)
         (N Bool))
  (let ((a!1 (and (= M L) (not (<= K (+ 4 M)))))
        (a!2 (and (not (<= K L)) (= J K) (not (<= I (+ 4 J))) (not (<= I K)))))
  (let ((a!3 (or (not N)
                 (not a!1)
                 (not a!2)
                 (not (Proc0 I H G F E N 2 M))
                 (not (Proc1 I H G F E N J))
                 (not (Proc2 I H G F E N J))
                 (not (and (= D 0) (= C I))))))
    (=> (not a!3) (Proc3 L H G F E N B A D C))))))
(assert (forall ((A Int)
         (B Int)
         (C Int)
         (D Int)
         (E Int)
         (F Int)
         (G Int)
         (H Int)
         (I Int)
         (J Int)
         (K Int)
         (L Int)
         (M Int)
         (N Bool)
         (O Int)
         (P Int)
         (Q Int)
         (R Int)
         (S Int)
         (T Int))
  (let ((a!1 (and (not (<= R (+ 4 T))) (not (<= R S))))
        (a!2 (not (and (not (= L Q)) (= F G))))
        (a!4 (and (not (<= B (+ 1 C))) (not (<= B G)))))
  (let ((a!3 (or a!2 (not (and (= E H) (= D F)))))
        (a!5 (or (not (= L Q))
                 (not (= C G))
                 (not a!4)
                 (not (and (Proc6 B Q P O M N C A) (= F A)))
                 (not (and (= E H) (= D F))))))
  (let ((a!6 (not (or (not N)
                      (not (= T S))
                      (not a!1)
                      (not (Proc0 R Q P O M N 2 T))
                      (= L 0)
                      (not (Proc4 R Q P O M N L))
                      (= K 0)
                      (= J 0)
                      (not (Proc5 R Q P O M N I L H G))
                      (and a!3 a!5)))))
    (=> a!6 (Proc7 S Q P O M N K L E D)))))))
(assert (forall ((A Int)
         (B Int)
         (C Int)
         (D Int)
         (E Int)
         (F Int)
         (G Int)
         (H Int)
         (I Int)
         (J Int)
         (N Bool))
  (let ((a!1 (not (or (not N)
                      (not (Proc8 J I H G F N E D))
                      (not (Proc9 J I H G F N D C))
                      (not (= B 0))))))
    (=> a!1 (Proc10 J I H G F N E A B)))))
(assert (forall ((A Int)
         (B Int)
         (C Int)
         (D Int)
         (E Int)
         (F Int)
         (G Int)
         (H Int)
         (I Int)
         (J Int)
         (K Int)
         (L Int)
         (N Bool))
  (let ((a!1 (and (not (<= J (+ 128 L))) (not (<= J K)))))
  (let ((a!2 (or (not N)
                 (not (= L K))
                 (not a!1)
                 (not (Proc11 J I H G F N L))
                 (not (Proc12 J I H G F N E 122 D))
                 (not (Proc13 J I H G F N L))
                 (not (and (= C 0) (= B J))))))
    (=> (not a!2) (Proc14 K I H G F N A E C B))))))
(assert (forall ((A Int)
         (B Int)
         (C Int)
         (D Int)
         (E Int)
         (F Int)
         (G Int)
         (H Int)
         (I Int)
         (J Int)
         (K Int)
         (N Bool))
  (let ((a!1 (or (not N)
                 (not (Proc15 K J I H G N F E))
                 (not (and (= D 0) (= C E))))))
    (=> (not a!1) (Proc16 K J I H G N B A D C)))))
(assert (forall ((A Int)
         (B Int)
         (C Int)
         (D Int)
         (E Int)
         (F Int)
         (G Int)
         (H Int)
         (I Int)
         (J Int)
         (K Int)
         (L Int)
         (M Int)
         (N Bool)
         (O Int)
         (P Int)
         (Q Int))
  (let ((a!1 (and (not (<= O (+ 4 Q))) (not (<= O P))))
        (a!2 (not (and (= I (- 513645724)) (Proc17 O M L K J N 1 12 I H G))))
        (a!3 (or (= H 0) (not (= F 0)) (not (and (= E F) (= D G)))))
        (a!4 (not (and (= C (- 1073741670)) (= F C)))))
  (let ((a!5 (or (not (= H 0)) a!4 (not (and (= E F) (= D G))))))
  (let ((a!6 (not (or (not N)
                      (not (= Q P))
                      (not a!1)
                      (not (Proc0 O M L K J N 2 Q))
                      a!2
                      (and a!3 a!5)))))
    (=> a!6 (Proc18 P M L K J N B A E D)))))))
(assert (forall ((A Int)
         (B Int)
         (C Int)
         (D Int)
         (E Int)
         (F Int)
         (G Int)
         (H Int)
         (I Int)
         (N Bool))
  (let ((a!1 (or (not N)
                 (= I 0)
                 (not (Proc19 H G F E D N I 0))
                 (not (= C (- 1073741536)))
                 (not (= B C)))))
    (=> (not a!1) (Proc20 H G F E D N A I B)))))
(assert (forall ((A Int)
         (B Int)
         (C Int)
         (D Int)
         (E Int)
         (F Int)
         (G Int)
         (H Int)
         (I Int)
         (N Bool))
  (let ((a!1 (not (or (not N) (not (Proc21 I H G F E N 1000 D)) (not (= C 0))))))
    (=> a!1 (Proc22 I H G F E N B A C)))))
(assert (forall ((A Int)
         (B Int)
         (C Int)
         (D Int)
         (E Int)
         (F Int)
         (G Int)
         (H Int)
         (I Int)
         (J Int)
         (K Int)
         (L Int)
         (M Int)
         (N Bool)
         (O Int)
         (P Int)
         (Q Int))
  (let ((a!1 (and (= Q P) (not (<= O (+ 4 Q)))))
        (a!2 (and (not (<= O P)) (= M O) (not (<= L (+ 84 M))) (not (<= L O))))
        (a!3 (or (= G 0)
                 (not (Proc24 L K J I H N M))
                 (not (= F 0))
                 (not (and (= E F) (= D L)))))
        (a!4 (not (and (= C (- 1073741823)) (= F C)))))
  (let ((a!5 (or (not (= G 0)) a!4 (not (and (= E F) (= D L))))))
  (let ((a!6 (not (or (not N)
                      (not a!1)
                      (not a!2)
                      (not (Proc0 L K J I H N 31 Q))
                      (not (Proc23 L K J I H N M 0 G))
                      (and a!3 a!5)))))
    (=> a!6 (Proc25 P K J I H N B A E D)))))))
(assert (forall ((A Int) (B Int) (C Int) (D Int) (E Int) (F Int) (N Bool))
  (=> N (Proc11 F E D C B N A))))
(assert (forall ((A Int)
         (B Int)
         (C Int)
         (D Int)
         (E Int)
         (F Int)
         (G Int)
         (H Int)
         (I Int)
         (N Bool))
  (let ((a!1 (and (or (not (= H 1)) (not (= G H)))
                  (or (not (= H 0)) (not (= G H))))))
  (let ((a!2 (and (or (= I 0) (not (= H 1)) (not (= G H)))
                  (or (not (= I 0)) a!1))))
    (=> (not (or (not N) a!2)) (Proc23 F E D C B N A I G))))))
(assert (forall ((A Int)
         (B Int)
         (C Int)
         (D Int)
         (E Int)
         (F Int)
         (G Int)
         (H Int)
         (I Int)
         (J Int)
         (K Int)
         (L Int)
         (M Int)
         (N Bool)
         (O Int))
  (let ((a!1 (or (not (and (= O M) (= L 0))) (not (and (= K L) (= J O)))))
        (a!2 (and (not (<= H (+ 1 I))) (not (<= H M)))))
  (let ((a!3 (or (not (= I M))
                 (not a!2)
                 (not (and (= O H) (= L I)))
                 (not (and (= K L) (= J O))))))
    (=> (not (or (not N) (and a!1 a!3))) (Proc17 M G F E D N C B A K J))))))
(assert (forall ((A Int) (B Int) (C Int) (D Int) (E Int) (F Int) (N Bool))
  (=> N (Proc13 F E D C B N A))))
(assert (forall ((A Int) (B Int) (C Int) (D Int) (E Int) (F Int) (N Bool))
  (=> N (Proc24 F E D C B N A))))
(assert (forall ((A Int)
         (B Int)
         (C Int)
         (D Int)
         (E Int)
         (F Int)
         (G Int)
         (H Int)
         (I Int)
         (N Bool))
  (let ((a!1 (and (or (not (= I 0)) (not (= H I)))
                  (or (not (= I G)) (not (= H I))))))
    (=> (not (or (not N) a!1)) (Proc21 F E D C B N A H)))))
(assert (forall ((A Int)
         (B Int)
         (C Int)
         (D Int)
         (E Int)
         (F Int)
         (G Int)
         (H Int)
         (N Bool))
  (let ((a!1 (not (or (not N) (not (= H G))))))
    (=> a!1 (Proc8 F E D C B N A H)))))
(assert (forall ((A Int)
         (B Int)
         (C Int)
         (D Int)
         (E Int)
         (F Int)
         (G Int)
         (H Int)
         (I Int)
         (N Bool))
  (let ((a!1 (and (not (<= G (+ 1 I))) (not (<= G H)))))
  (let ((a!2 (or (not N) (not (= I H)) (not a!1) (not (and (= F I) (= E G))))))
    (=> (not a!2) (Proc15 H D C B A N F E))))))
(assert (forall ((A Int)
         (B Int)
         (C Int)
         (D Int)
         (E Int)
         (F Int)
         (G Int)
         (H Int)
         (N Bool))
  (let ((a!1 (not (or (not N) (= H 0) (not (= G 259))))))
    (=> a!1 (Proc26 F E D C B N A H G)))))
(assert (forall ((A Int)
         (B Int)
         (C Int)
         (D Int)
         (E Int)
         (F Int)
         (G Int)
         (H Int)
         (I Int)
         (J Int)
         (K Int)
         (L Int)
         (N Bool))
  (let ((a!1 (and (not (<= J (+ 1 L))) (not (<= J K)))))
  (let ((a!2 (or (not N)
                 (not (= L K))
                 (not a!1)
                 (not (Proc27 J I H G F N L E))
                 (not (and (= D J) (= C E))))))
    (=> (not a!2) (Proc28 K I H G F N B A D C))))))
(assert (forall ((A Int) (B Int) (C Int) (D Int) (E Int) (F Int) (G Int) (N Bool))
  (let ((a!1 (not (or (not N) (not (= G 1))))))
    (=> a!1 (Proc27 F E D C B N A G)))))
(assert (forall ((A Int) (B Int) (C Int) (D Int) (E Int) (F Int) (N Bool))
  (=> false (Proc29 F E D C B N A))))
(assert (forall ((A Int)
         (B Int)
         (C Int)
         (D Int)
         (E Int)
         (F Int)
         (G Int)
         (H Int)
         (I Int)
         (N Bool))
  (let ((a!1 (and (not (<= G (+ 1 I))) (not (<= G H)))))
  (let ((a!2 (not (or (not N)
                      (not (= I H))
                      (not a!1)
                      (not (Proc29 G F E D C N I))
                      (not (= B G))))))
    (=> a!2 (Proc30 H F E D C N A B))))))
(assert (forall ((A Int)
         (B Int)
         (C Int)
         (D Int)
         (E Int)
         (F Int)
         (G Int)
         (H Int)
         (I Int)
         (N Bool))
  (let ((a!1 (and (not (<= G (+ 1 I))) (not (<= G H)))))
  (let ((a!2 (not (or (not N)
                      (not (= I H))
                      (not a!1)
                      (not (Proc29 G F E D C N I))
                      (not (= B G))))))
    (=> a!2 (Proc6 H F E D C N A B))))))
(assert (forall ((A Int)
         (B Int)
         (C Int)
         (D Int)
         (E Int)
         (F Int)
         (G Int)
         (H Int)
         (I Int)
         (J Int)
         (K Int)
         (L Int)
         (M Int)
         (N Bool)
         (O Int)
         (P Int))
  (let ((a!1 (or (not (= G 1))
                 (not (and (= F G) (= E H)))
                 (not (and (= D E) (= C F)))))
        (a!2 (or (= G 1)
                 (not (and (= F G) (= E H)))
                 (not (and (= D E) (= C F)))))
        (a!3 (and (not (<= A (+ 1 B))) (not (<= A O)))))
  (let ((a!4 (or (= P 259)
                 (not (= B O))
                 (not a!3)
                 (not (Proc29 A M L K J N B))
                 (not (and (= F J) (= E A)))
                 (not (and (= D E) (= C F))))))
  (let ((a!5 (and (or (not (= P 259))
                      (not (Proc28 O M L K J N I P H G))
                      (and a!1 a!2))
                  a!4)))
    (=> (not (or (not N) a!5)) (Proc31 O M L K J N I P D C)))))))
(assert (forall ((A Int) (B Int) (C Int) (D Int) (E Int) (N Bool))
  (=> N (Proc32 E D C B A N))))
(assert (forall ((A Int) (B Int) (C Int) (D Int) (E Int) (N Bool))
  (=> N (Proc33 E D C B A N))))
(assert (forall ((A Int) (B Int) (C Int) (D Int) (E Int) (N Bool))
  (=> N (Proc34 E D C B A N))))
(assert (forall ((A Int) (B Int) (C Int) (D Int) (E Int) (N Bool))
  (=> N (Proc35 E D C B A N))))
(assert (forall ((A Int) (B Int) (C Int) (D Int) (E Int) (F Int) (N Bool))
  (let ((a!1 (not (or (not N) (not (= F E))))))
    (=> a!1 (Proc36 D C B E A N F)))))
(assert (forall ((A Int)
         (B Int)
         (C Int)
         (D Int)
         (E Int)
         (F Int)
         (G Int)
         (H Int)
         (N Bool))
  (let ((a!1 (or (not N) (not (and (= H G) (= F 0))))))
    (=> (not a!1) (Proc37 E D C B A N H F)))))
(assert (forall ((A Int)
         (B Int)
         (C Int)
         (D Int)
         (E Int)
         (F Int)
         (G Int)
         (H Int)
         (I Int)
         (J Int)
         (K Int)
         (L Int)
         (M Int)
         (N Bool)
         (O Int)
         (P Int)
         (Q Int)
         (R Int)
         (S Int)
         (T Int)
         (U Bool)
         (V Bool)
         (W Int)
         (X Int)
         (Y Int)
         (Z Bool))
  (let ((a!1 (not (and (not (<= Y 0)) (Proc38 Y X W T S Z R Q))))
        (a!2 (not (and (= G I) (= F L) (= E J) (= D M) (= U V) (= C K) (= B Q)))))
  (let ((a!3 (or (= J 0) (not (and (= I H) (not V))) a!2))
        (a!4 (or (not (and (= J 0) (= N Z))) (not (and (= I A) (= V N))) a!2)))
  (let ((a!5 (and (or (= J 1) (and a!3 a!4)) (or (not (= J 1)) (and a!3 a!4)))))
  (let ((a!6 (not (or (not Z)
                      a!1
                      (not (Proc37 R X W Q S Z P O))
                      (not (Proc36 R P W Q O Z M))
                      (not (Proc35 R P M Q O Z))
                      (not (Proc34 R P M Q O Z))
                      (not (Proc33 R P M Q O Z))
                      (not (Proc32 R P M Q O Z))
                      (= M 0)
                      (not (Proc39 R P M Q O Z L K J))
                      a!5))))
    (=> a!6 (Proc40 Y X W T S Z G F E D U C B))))))))
(assert (forall ((A Int) (B Int) (C Int) (D Int) (E Int) (F Int) (N Bool))
  (let ((a!1 (not (or (not N) (not (= F 1))))))
    (=> a!1 (Proc41 E D C B A N F)))))
(assert (forall ((A Int) (B Int) (C Int) (D Int) (E Int) (F Int) (N Bool))
  (let ((a!1 (not (or (not N) (not (= F 1))))))
    (=> a!1 (Proc42 E D C B A N F)))))
(assert (forall ((A Int) (B Int) (C Int) (D Int) (E Int) (F Int) (N Bool))
  (let ((a!1 (not (or (not N) (not (= F 1))))))
    (=> a!1 (Proc43 E D C B A N F)))))
(assert (forall ((A Int) (B Int) (C Int) (D Int) (E Int) (F Int) (N Bool))
  (let ((a!1 (not (or (not N) (not (= F 0))))))
    (=> a!1 (Proc44 E D C B A N F)))))
(assert (forall ((A Int) (B Int) (C Int) (D Int) (E Int) (F Int) (N Bool))
  (let ((a!1 (not (or (not N) (not (= F 1))))))
    (=> a!1 (Proc45 E D C B A N F)))))
(assert (forall ((A Int) (B Int) (C Int) (D Int) (E Int) (F Int) (N Bool))
  (let ((a!1 (not (or (not N) (not (= F 0))))))
    (=> a!1 (Proc46 E D C B A N F)))))
(assert (forall ((A Int) (B Int) (C Int) (D Int) (E Int) (F Int) (N Bool))
  (let ((a!1 (not (or (not N) (not (= F 1))))))
    (=> a!1 (Proc47 E D C B A N F)))))
(assert (forall ((A Int) (B Int) (C Int) (D Int) (E Int) (F Int) (N Bool))
  (let ((a!1 (not (or (not N) (not (= F 1))))))
    (=> a!1 (Proc48 E D C B A N F)))))
(assert (forall ((A Int) (B Int) (C Int) (D Int) (E Int) (F Int) (N Bool))
  (let ((a!1 (not (or (not N) (not (= F 0))))))
    (=> a!1 (Proc49 E D C B A N F)))))
(assert (forall ((A Int) (B Int) (C Int) (D Int) (E Int) (F Int) (N Bool))
  (let ((a!1 (not (or (not N) (not (= F 0))))))
    (=> a!1 (Proc50 E D C B A N F)))))
(assert (forall ((A Int) (B Int) (C Int) (D Int) (E Int) (F Int) (N Bool))
  (let ((a!1 (not (or (not N) (not (= F 0))))))
    (=> a!1 (Proc51 E D C B A N F)))))
(assert (forall ((A Int) (B Int) (C Int) (D Int) (E Int) (F Int) (G Int) (N Bool))
  (let ((a!1 (or (not N) (not (= G (- 1073741823))) (not (= F G)))))
    (=> (not a!1) (Proc52 E D C B A N F)))))
(assert (forall ((A Int)
         (B Int)
         (C Int)
         (D Int)
         (E Int)
         (F Int)
         (G Int)
         (H Int)
         (I Int)
         (J Int)
         (K Int)
         (L Int)
         (M Int)
         (N Bool)
         (O Int))
  (let ((a!1 (not (and (not (= H M)) (= F O))))
        (a!3 (and (not (<= B (+ 1 C))) (not (<= B O)))))
  (let ((a!2 (or a!1 (not (and (= E G) (= D F)))))
        (a!4 (or (not (= H M))
                 (not (= C O))
                 (not a!3)
                 (not (and (Proc30 B M L K J N C A) (= F A)))
                 (not (and (= E G) (= D F))))))
  (let ((a!5 (not (or (not N) (not (Proc26 O M L K J N I H G)) (and a!2 a!4)))))
    (=> a!5 (Proc5 O M L K J N I H E D)))))))
(assert (forall ((A Int) (B Int) (C Int) (D Int) (E Int) (F Int) (G Int) (N Bool))
  (=> N (Proc19 G F E D C N B A))))
(assert (forall ((A Int) (B Int) (C Int) (D Int) (E Int) (F Int) (N Bool))
  (let ((a!1 (not (or (not N) (not (= F 0))))))
    (=> a!1 (Proc53 E D C B A N F)))))
(assert (forall ((A Int)
         (B Int)
         (C Int)
         (D Int)
         (E Int)
         (F Int)
         (G Int)
         (H Int)
         (I Int)
         (N Bool))
  (let ((a!1 (not (or (not N) (= I 0) (not (= H G))))))
    (=> a!1 (Proc12 F E D C B N I A H)))))
(assert (forall ((A Int) (B Int) (C Int) (D Int) (E Int) (F Int) (N Bool))
  (=> N (Proc4 F E D C B N A))))
(assert (forall ((A Int) (B Int) (C Int) (D Int) (E Int) (F Int) (N Bool))
  (=> N (Proc1 F E D C B N A))))
(assert (forall ((A Int) (B Int) (C Int) (D Int) (E Int) (F Int) (G Int) (N Bool))
  (=> (not (or (not N) (= G 0))) (Proc0 F E D C B N A G))))
(assert (forall ((A Int) (B Int) (C Int) (D Int) (E Int) (F Int) (N Bool))
  (=> N (Proc2 F E D C B N A))))
(assert (forall ((A Int)
         (B Int)
         (C Int)
         (D Int)
         (E Int)
         (F Int)
         (G Int)
         (H Int)
         (N Bool))
  (let ((a!1 (not (or (not N) (not (= H G))))))
    (=> a!1 (Proc9 F E D C B N A H)))))
(assert (forall ((A Int)
         (B Int)
         (C Int)
         (D Int)
         (E Int)
         (F Int)
         (G Int)
         (H Int)
         (I Int)
         (J Int)
         (K Int)
         (L Int)
         (M Int)
         (N Bool)
         (O Int)
         (P Int)
         (Q Int)
         (R Int)
         (S Int)
         (T Int)
         (W Int)
         (X Int)
         (Y Int)
         (A1 Int)
         (B1 Int)
         (C1 Int)
         (D1 Int)
         (E1 Int)
         (F1 Int)
         (G1 Int)
         (H1 Int)
         (I1 Int)
         (J1 Int)
         (K1 Int))
  (let ((a!1 (not (Proc56 A1 I1 H1 G1 F1 N B1 K1))))
  (let ((a!2 (or (= E1 0)
                 (not (Proc10 J1 I1 H1 G1 F1 N D1 K1 C1))
                 (not (and (= B1 C1) (= A1 J1)))
                 a!1
                 (= K1 0)
                 (not (and (= Y B1) (= X A1)))))
        (a!3 (or (= E1 0)
                 (not (Proc7 J1 I1 H1 G1 F1 N D1 K1 W T))
                 (not (and (= B1 W) (= A1 T)))
                 a!1
                 (= K1 0)
                 (not (and (= Y B1) (= X A1)))))
        (a!4 (or (= E1 0)
                 (not (Proc18 J1 I1 H1 G1 F1 N D1 K1 S R))
                 (not (and (= B1 S) (= A1 R)))
                 a!1
                 (= K1 0)
                 (not (and (= Y B1) (= X A1)))))
        (a!5 (or (= E1 0)
                 (not (Proc25 J1 I1 H1 G1 F1 N D1 K1 Q P))
                 (not (and (= B1 Q) (= A1 P)))
                 a!1
                 (= K1 0)
                 (not (and (= Y B1) (= X A1)))))
        (a!6 (or (= E1 0)
                 (not (Proc52 J1 I1 H1 G1 F1 N O))
                 (not (and (= B1 O) (= A1 J1)))
                 a!1
                 (= K1 0)
                 (not (and (= Y B1) (= X A1)))))
        (a!7 (or (= E1 0)
                 (not (Proc52 J1 I1 H1 G1 F1 N M))
                 (not (and (= B1 M) (= A1 J1)))
                 a!1
                 (= K1 0)
                 (not (and (= Y B1) (= X A1)))))
        (a!8 (or (= E1 0)
                 (not (Proc52 J1 I1 H1 G1 F1 N L))
                 (not (and (= B1 L) (= A1 J1)))
                 a!1
                 (= K1 0)
                 (not (and (= Y B1) (= X A1)))))
        (a!9 (or (not (Proc52 J1 I1 H1 G1 F1 N K))
                 (not (and (= B1 K) (= A1 J1)))
                 a!1
                 (= K1 0)
                 (not (and (= Y B1) (= X A1)))))
        (a!10 (or (= E1 0)
                  (not (Proc14 J1 I1 H1 G1 F1 N D1 K1 J I))
                  (not (and (= B1 J) (= A1 I)))
                  a!1
                  (= K1 0)
                  (not (and (= Y B1) (= X A1)))))
        (a!11 (or (= E1 0)
                  (not (Proc16 J1 I1 H1 G1 F1 N D1 K1 H G))
                  (not (and (= B1 H) (= A1 G)))
                  a!1
                  (= K1 0)
                  (not (and (= Y B1) (= X A1)))))
        (a!12 (or (= E1 0)
                  (not (Proc20 J1 I1 H1 G1 F1 N D1 K1 F))
                  (not (and (= B1 F) (= A1 J1)))
                  a!1
                  (= K1 0)
                  (not (and (= Y B1) (= X A1)))))
        (a!13 (or (not (Proc52 J1 I1 H1 G1 F1 N E))
                  (not (and (= B1 E) (= A1 J1)))
                  a!1
                  (= K1 0)
                  (not (and (= Y B1) (= X A1)))))
        (a!14 (or (= E1 0)
                  (not (Proc3 J1 I1 H1 G1 F1 N D1 K1 D C))
                  (not (and (= B1 D) (= A1 C)))
                  a!1
                  (= K1 0)
                  (not (and (= Y B1) (= X A1)))))
        (a!15 (or (not (Proc52 J1 I1 H1 G1 F1 N B))
                  (not (and (= B1 B) (= A1 J1)))
                  a!1
                  (= K1 0)
                  (not (and (= Y B1) (= X A1)))))
        (a!16 (or (= E1 0)
                  (not (Proc22 J1 I1 H1 G1 F1 N D1 K1 A))
                  (not (and (= B1 A) (= A1 J1)))
                  a!1
                  (= K1 0)
                  (not (and (= Y B1) (= X A1))))))
  (let ((a!17 (not (or (not N)
                       (= K1 0)
                       (not (Proc54 J1 I1 H1 G1 F1 N K1))
                       (= E1 0)
                       (not (Proc55 J1 I1 H1 G1 F1 N))
                       (and a!2
                            a!3
                            a!4
                            a!5
                            a!6
                            a!7
                            a!8
                            a!9
                            a!10
                            a!11
                            a!12
                            a!13
                            a!14
                            a!15
                            a!16)))))
    (=> a!17 (Proc57 J1 I1 H1 G1 F1 N D1 K1 Y X)))))))
(assert (forall ((A Int) (B Int) (C Int) (D Int) (E Int) (F Int) (N Bool))
  (=> (not (or (not N) (= F 0))) (Proc54 E D C B A N F))))
(assert (forall ((A Int)
         (B Int)
         (C Int)
         (D Int)
         (E Int)
         (F Int)
         (G Int)
         (H Int)
         (I Int)
         (J Int)
         (K Int)
         (L Int)
         (M Int)
         (N Bool)
         (O Int)
         (P Int)
         (Q Int)
         (R Int)
         (S Int)
         (T Int)
         (W Int)
         (X Int)
         (Y Int)
         (A1 Int)
         (B1 Int)
         (C1 Int)
         (D1 Int)
         (E1 Int)
         (F1 Int)
         (G1 Int))
  (let ((a!1 (not (and (= K G1) (= J M) (= I L))))
        (a!3 (and (not (<= D (+ 1 E))) (not (<= D F)))))
  (let ((a!2 (or (not (and (= M F1) (= L D1))) a!1))
        (a!4 (or (not (= B 1)) (not (and (= M C) (= L B))) a!1))
        (a!5 (or (= B 1) (not (and (= M C) (= L B))) a!1))
        (a!6 (or (not (= C1 0)) (not (and (= M F1) (= L D1))) a!1)))
  (let ((a!7 (and a!2
                  (or (= C1 0)
                      (not (Proc58 F1 G1 G1 E1 D1 N))
                      (not (Proc57 F1 G1 G1 E1 D1 N H G1 G F))
                      (not (= E F))
                      (not a!3)
                      (not (Proc31 D G1 G1 E1 D1 N E G C B))
                      (and a!4 a!5))
                  a!6)))
  (let ((a!8 (not (or (not N)
                      (= G1 0)
                      (not (Proc43 F1 G1 G1 E1 D1 N C1))
                      (not (Proc50 F1 G1 G1 E1 D1 N B1))
                      (not (Proc44 F1 G1 G1 E1 D1 N A1))
                      (not (Proc49 F1 G1 G1 E1 D1 N Y))
                      (not (Proc42 F1 G1 G1 E1 D1 N X))
                      (not (Proc46 F1 G1 G1 E1 D1 N W))
                      (not (Proc53 F1 G1 G1 E1 D1 N T))
                      (not (Proc51 F1 G1 G1 E1 D1 N S))
                      (not (Proc41 F1 G1 G1 E1 D1 N R))
                      (not (Proc47 F1 G1 G1 E1 D1 N Q))
                      (not (Proc48 F1 G1 G1 E1 D1 N P))
                      (not (Proc45 F1 G1 G1 E1 D1 N O))
                      a!7))))
    (=> a!8 (Proc39 F1 A G1 E1 D1 N K J I))))))))
(assert (forall ((A Int) (B Int) (C Int) (D Int) (E Int) (N Bool))
  (=> N (Proc55 E D C B A N))))
(assert (forall ((A Int) (B Int) (C Int) (D Int) (E Int) (F Int) (G Int) (N Bool))
  (=> N (Proc56 G F E D C N B A))))
(assert (forall ((A Int) (B Int) (C Int) (D Int) (E Int) (N Bool))
  (=> N (Proc58 E D C B A N))))
(assert (forall ((A Int)
         (B Int)
         (C Int)
         (D Int)
         (E Int)
         (F Int)
         (G Int)
         (H Int)
         (I Int)
         (J Int)
         (K Int)
         (L Int)
         (M Int)
         (N Bool)
         (O Int)
         (P Int)
         (Q Int)
         (R Int)
         (S Int)
         (T Int)
         (W Int)
         (X Int)
         (Y Int)
         (A1 Int)
         (B1 Int)
         (C1 Int)
         (D1 Int)
         (E1 Int)
         (F1 Int)
         (G1 Int)
         (H1 Int)
         (I1 Int)
         (J1 Int)
         (K1 Int)
         (L1 Int)
         (M1 Int)
         (N1 Int)
         (O1 Int)
         (P1 Int)
         (Q1 Int)
         (R1 Int)
         (S1 Int)
         (T1 Int)
         (U1 Int)
         (V1 Int)
         (W1 Int)
         (X1 Int)
         (Y1 Int)
         (Z1 Int)
         (A2 Int)
         (B2 Int)
         (C2 Int)
         (D2 Int)
         (E2 Int)
         (F2 Int)
         (G2 Int)
         (H2 Int)
         (I2 Int)
         (J2 Int)
         (K2 Int)
         (L2 Int)
         (M2 Int))
  (let ((a!1 (and (not (<= K2 (+ 240 M2)))
                  (not (<= K2 L2))
                  (= J2 K2)
                  (not (<= I2 (+ 4 J2)))
                  (not (<= I2 K2))
                  (= H2 I2)
                  (not (<= G2 (+ 332 H2)))
                  (not (<= G2 I2))
                  (= F2 G2)
                  (not (<= E2 (+ 4 F2)))
                  (not (<= E2 G2))
                  (= D2 E2)
                  (not (<= C2 (+ 536 D2)))
                  (not (<= C2 E2))
                  (= B2 C2)
                  (not (<= A2 (+ 240 B2)))))
        (a!2 (and (not (<= A2 C2))
                  (= Z1 A2)
                  (not (<= Y1 (+ 240 Z1)))
                  (not (<= Y1 A2))
                  (= X1 Y1)
                  (not (<= W1 (+ 536 X1)))
                  (not (<= W1 Y1))
                  (= V1 W1)
                  (not (<= U1 (+ 240 V1)))
                  (not (<= U1 W1))
                  (= T1 U1)
                  (not (<= S1 (+ 4 T1)))
                  (not (<= S1 U1))
                  (= R1 S1)
                  (not (<= Q1 (+ 536 R1)))
                  (not (<= Q1 S1))
                  (= P1 Q1)
                  (not (<= O1 (+ 332 P1)))
                  (not (<= O1 Q1))
                  (= N1 O1)
                  (not (<= M1 (+ 60 N1)))
                  (not (<= M1 O1))
                  (= L1 M1)
                  (not (<= K1 (+ 240 L1)))
                  (not (<= K1 M1))
                  (= J1 K1)
                  (not (<= I1 (+ 240 J1)))
                  (not (<= I1 K1))
                  (= H1 I1)
                  (not (<= G1 (+ 332 H1)))
                  (not (<= G1 I1))
                  (= F1 G1)
                  (not (<= E1 (+ 4 F1)))
                  (not (<= E1 G1))
                  (= D1 E1)
                  (not (<= C1 (+ 536 D1)))
                  (not (<= C1 E1))
                  (= B1 C1)
                  (not (<= A1 (+ 240 B1)))
                  (not (<= A1 C1))
                  (= Y A1)
                  (not (<= X (+ 240 Y)))
                  (not (<= X A1))
                  (= W X)
                  (not (<= T (+ 240 W)))
                  (not (<= T X))
                  (= S T)
                  (not (<= R (+ 240 S)))
                  (not (<= R T))
                  (= Q R)
                  (not (<= P (+ 240 Q)))
                  (not (<= P R))
                  (= O P)
                  (not (<= M (+ 40 O)))
                  (not (<= M P))
                  (= L M)
                  (not (<= K (+ 332 L)))
                  (not (<= K M))
                  (= J K)
                  (not (<= I (+ 4 J)))
                  (not (<= I K))
                  (= H I)
                  (not (<= G (+ 40 H)))
                  (not (<= G I)))))
  (let ((a!3 (or (not N)
                 (not (= M2 L2))
                 (not a!1)
                 (not a!2)
                 (not (and (= F G) (= E Q))))))
    (=> (not a!3) (Proc38 L2 D C B A N F E))))))
(assert (forall ((A Int)
         (B Int)
         (C Int)
         (D Int)
         (E Int)
         (F Int)
         (G Int)
         (H Int)
         (I Int)
         (J Int)
         (K Int)
         (L Int)
         (M Int)
         (N Bool)
         (O Int)
         (P Int)
         (Q Int)
         (R Int)
         (U Bool)
         (V Bool))
  (let ((a!1 (or (not V)
                 (not (and (Proc40 R Q P O M true L K J I U H G) (not U))))))
    (=> (not a!1) (Proc59 R Q P O M V F N E D C B A)))))
(assert (let ((a!1 (exists ((V0 Int)
                    (V1 Int)
                    (V2 Int)
                    (V3 Int)
                    (V4 Int)
                    (V5 Bool)
                    (V6 Int)
                    (V7 Bool)
                    (V8 Int)
                    (V9 Int)
                    (V10 Int)
                    (V11 Int)
                    (V12 Int))
             (not (=> (and (Proc59 V0 V1 V2 V3 V4 V5 V6 V7 V8 V9 V10 V11 V12)
                           (not false))
                      false)))))
  (not a!1)))

(check-sat)
